Crypto/instances/samples/hf_n32/hf_n32_cnf14.sol
c DPLL-like Solver for max-min SAT
f file hf_n32_cnf14.cnf
p cnf 32 220
s max  220 -8 -7 5 -6 -22 10 11 9 -27 12 -15 14 -16 13 -28 -19 -23 -18 -26 -20 -4 -2 -3 1 -25 -17 -30 -31 -24 -32 -21 -29
s min  192 8 30 -11 12 -23 -9 -25 13 32 14 -16 -15 27 10 24 19 28 29 20 -31 -21 18 17 -22 26 1 -2 3 4 -5 6 -7